(set-logic HORN)
(declare-fun state (Int (Array Int Int) (Array Int Int) (Array Int Int) (Array Int Int) Int Int (Array Int Int) (Array Int Int) Int Int Int Int Int Int Int Int Int Int Int Int Int Int Int Int Int Int Int Int Int Int Int Int Int Int Int Int Int Int Int Int Bool Int Int Int Int Int Int Int Int Int Int Int Int Int Int Int Int Bool Bool Bool Bool Bool Bool Bool (Array Int Int) Int Int) Bool)
(assert (forall ((|A_3| Int) (|B_3| (Array Int Int)) (|C_3| (Array Int Int)) (|D_3| (Array Int Int)) (|E_3| (Array Int Int)) (|F_3| Int) (|G_3| Int) (|H_3| (Array Int Int)) (|I_3| (Array Int Int)) (|J_3| Int) (|K_3| Int) (|L_3| Int) (|M_3| Int) (|N_3| Int) (|O_3| Int) (|P_3| Int) (|Q_3| Int) (|R_3| Int) (|S_3| Int) (|T_3| Int) (|U_3| Int) (|V_3| Int) (|W_3| Int) (|X_3| Int) (|Y_3| Int) (|Z_3| Int) (|A1_3| Int) (|B1_3| Int) (|C1_3| Int) (|D1_3| Int) (|E1_3| Int) (|F1_3| Int) (|G1_3| Int) (|H1_3| Int) (|I1_3| Int) (|J1_3| Int) (|K1_3| Int) (|L1_3| Int) (|M1_3| Int) (|N1_3| Int) (|O1_3| Int) (|P1_3| Bool) (|Q1_3| Int) (|R1_3| Int) (|S1_3| Int) (|T1_3| Int) (|U1_3| Int) (|H2_2| Int) (|W1_3| Int) (|X1_3| Int) (|Y1_3| Int) (|Z1_3| Int) (|A2_3| Int) (|B2_3| Int) (|C2_3| Int) (|D2_3| Int) (|E2_3| Int) (|F2_3| Int) (|G2_3| Bool) (|.loc.5| Bool) (|.loc.6| Bool) (|.loc.7| Bool) (|.loc.8| Bool) (|H2_8| Bool) (|H2_4| Bool) (|H2_1| (Array Int Int)) (|M2_0| Int) (|K2_3| Int) (|.x.780| Bool) (|.x.750| Int) (|.x.747| Int) (|.x.739| Int) (|.x.732| Int) (|.x.730| (Array Int Int)) (|.x.728| Int) (|.x.726| (Array Int Int)) (|.x.722| Int) (|.x.724| (Array Int Int)) (|.x.769| Int) (|.x.775| Int) (|.x.723| (Array Int Int)) (|.x.740| Int) (|.x.751| Int) (|.loc.9| Bool) (|.x.731| Int) (|.x.727| Int) (|.x.733| Int) (|.x.734| Int) (|.x.737| Int) (|.x.738| Int) (|.x.742| Int) (|.x.743| Int) (|.x.744| Int) (|.x.745| Int) (|.x.746| Int) (|.x.748| Int) (|.x.752| Int) (|.x.753| Int) (|.x.754| Int) (|.x.755| Int) (|.x.758| Int) (|.x.759| Int) (|.x.760| Int) (|.x.761| Int) (|.x.762| Int) (|.x.763| Bool) (|.x.766| Int) (|.x.772| Int) (|.x.776| Int) (|.x.777| Int) (|.x.779| Int) (|.loc.10| Bool) (|.loc.11| Bool) (|.x.771| Int) (|.x.764| Int) (|.x.736| Int) (|.x.735| Int) (|.x.741| Int) (|.x.749| Int) (|.x.756| Int) (|.x.757| Int) (|.x.765| Int) (|.x.767| Int) (|.x.768| Int) (|.x.770| Int) (|.x.773| Int) (|.x.774| Int) (|.x.778| Int) (|.x.729| (Array Int Int)) (|.x.725| (Array Int Int)) (|.loc.12| Bool) (|.xtv.1| Bool) (|.xtv.2| Bool) (|.xtv.3| (Array Int Int)) (|.xtv.4| Int) (|.xtv.5| Int)) (=> (and (and (and (and .loc.5 .loc.6) (not .loc.7)) (not .loc.8)) (and (and (and (and (and (= D_3 E_3) (not G2_3)) (= F_3 G_3)) (= J_3 K_3)) (= H_3 I_3)) (= B_3 C_3))) (state |A_3| |B_3| |C_3| |D_3| |E_3| |F_3| |G_3| |H_3| |I_3| |J_3| |K_3| |L_3| |M_3| |N_3| |O_3| |P_3| |Q_3| |R_3| |S_3| |T_3| |U_3| |V_3| |W_3| |X_3| |Y_3| |Z_3| |A1_3| |B1_3| |C1_3| |D1_3| |E1_3| |F1_3| |G1_3| |H1_3| |I1_3| |J1_3| |K1_3| |L1_3| |M1_3| |N1_3| |O1_3| |P1_3| |Q1_3| |R1_3| |S1_3| |T1_3| |U1_3| |H2_2| |W1_3| |X1_3| |Y1_3| |Z1_3| |A2_3| |B2_3| |C2_3| |D2_3| |E2_3| |F2_3| |G2_3| |.loc.5| |.loc.6| |.loc.7| |.loc.8| |H2_8| |H2_4| |H2_1| |M2_0| |K2_3|))))
(assert (forall ((|A_3| Int) (|B_3| (Array Int Int)) (|C_3| (Array Int Int)) (|D_3| (Array Int Int)) (|E_3| (Array Int Int)) (|F_3| Int) (|G_3| Int) (|H_3| (Array Int Int)) (|I_3| (Array Int Int)) (|J_3| Int) (|K_3| Int) (|L_3| Int) (|M_3| Int) (|N_3| Int) (|O_3| Int) (|P_3| Int) (|Q_3| Int) (|R_3| Int) (|S_3| Int) (|T_3| Int) (|U_3| Int) (|V_3| Int) (|W_3| Int) (|X_3| Int) (|Y_3| Int) (|Z_3| Int) (|A1_3| Int) (|B1_3| Int) (|C1_3| Int) (|D1_3| Int) (|E1_3| Int) (|F1_3| Int) (|G1_3| Int) (|H1_3| Int) (|I1_3| Int) (|J1_3| Int) (|K1_3| Int) (|L1_3| Int) (|M1_3| Int) (|N1_3| Int) (|O1_3| Int) (|P1_3| Bool) (|Q1_3| Int) (|R1_3| Int) (|S1_3| Int) (|T1_3| Int) (|U1_3| Int) (|H2_2| Int) (|W1_3| Int) (|X1_3| Int) (|Y1_3| Int) (|Z1_3| Int) (|A2_3| Int) (|B2_3| Int) (|C2_3| Int) (|D2_3| Int) (|E2_3| Int) (|F2_3| Int) (|G2_3| Bool) (|.loc.5| Bool) (|.loc.6| Bool) (|.loc.7| Bool) (|.loc.8| Bool) (|H2_8| Bool) (|H2_4| Bool) (|H2_1| (Array Int Int)) (|M2_0| Int) (|K2_3| Int) (|.x.780| Bool) (|.x.750| Int) (|.x.747| Int) (|.x.739| Int) (|.x.732| Int) (|.x.730| (Array Int Int)) (|.x.728| Int) (|.x.726| (Array Int Int)) (|.x.722| Int) (|.x.724| (Array Int Int)) (|.x.769| Int) (|.x.775| Int) (|.x.723| (Array Int Int)) (|.x.740| Int) (|.x.751| Int) (|.loc.9| Bool) (|.x.731| Int) (|.x.727| Int) (|.x.733| Int) (|.x.734| Int) (|.x.737| Int) (|.x.738| Int) (|.x.742| Int) (|.x.743| Int) (|.x.744| Int) (|.x.745| Int) (|.x.746| Int) (|.x.748| Int) (|.x.752| Int) (|.x.753| Int) (|.x.754| Int) (|.x.755| Int) (|.x.758| Int) (|.x.759| Int) (|.x.760| Int) (|.x.761| Int) (|.x.762| Int) (|.x.763| Bool) (|.x.766| Int) (|.x.772| Int) (|.x.776| Int) (|.x.777| Int) (|.x.779| Int) (|.loc.10| Bool) (|.loc.11| Bool) (|.x.771| Int) (|.x.764| Int) (|.x.736| Int) (|.x.735| Int) (|.x.741| Int) (|.x.749| Int) (|.x.756| Int) (|.x.757| Int) (|.x.765| Int) (|.x.767| Int) (|.x.768| Int) (|.x.770| Int) (|.x.773| Int) (|.x.774| Int) (|.x.778| Int) (|.x.729| (Array Int Int)) (|.x.725| (Array Int Int)) (|.loc.12| Bool) (|.xtv.1| Bool) (|.xtv.2| Bool) (|.xtv.3| (Array Int Int)) (|.xtv.4| Int) (|.xtv.5| Int)) (=> (and (state |A_3| |B_3| |C_3| |D_3| |E_3| |F_3| |G_3| |H_3| |I_3| |J_3| |K_3| |L_3| |M_3| |N_3| |O_3| |P_3| |Q_3| |R_3| |S_3| |T_3| |U_3| |V_3| |W_3| |X_3| |Y_3| |Z_3| |A1_3| |B1_3| |C1_3| |D1_3| |E1_3| |F1_3| |G1_3| |H1_3| |I1_3| |J1_3| |K1_3| |L1_3| |M1_3| |N1_3| |O1_3| |P1_3| |Q1_3| |R1_3| |S1_3| |T1_3| |U1_3| |H2_2| |W1_3| |X1_3| |Y1_3| |Z1_3| |A2_3| |B2_3| |C2_3| |D2_3| |E2_3| |F2_3| |G2_3| |.loc.5| |.loc.6| |.loc.7| |.loc.8| |H2_8| |H2_4| |H2_1| |M2_0| |K2_3|) (let ((.def_79 (not .loc.7))) (let ((.def_81 (not .loc.8))) (let ((.def_132 (= B_3 .x.723))) (let ((.def_135 (= S_3 .x.740))) (let ((.def_138 (= D1_3 .x.751))) (let ((.def_142 (not .loc.5))) (let ((.def_144 (not .loc.6))) (let ((.def_151 (not .loc.9))) (let ((.def_154 (= B2_3 .x.775))) (let ((.def_155 (and (and .def_79 (and (and .loc.5 .loc.6) .def_151)) .def_154))) (let ((.def_156 (= H2_2 .x.769))) (let ((.def_161 (= J_3 .x.731))) (let ((.def_163 (= F_3 .x.727))) (let ((.def_166 (= L_3 .x.733))) (let ((.def_169 (= M_3 .x.734))) (let ((.def_172 (= P_3 .x.737))) (let ((.def_175 (= Q_3 .x.738))) (let ((.def_178 (= U_3 .x.742))) (let ((.def_181 (= V_3 .x.743))) (let ((.def_184 (= W_3 .x.744))) (let ((.def_187 (= X_3 .x.745))) (let ((.def_190 (= Y_3 .x.746))) (let ((.def_193 (= A1_3 .x.748))) (let ((.def_196 (= E1_3 .x.752))) (let ((.def_199 (= F1_3 .x.753))) (let ((.def_202 (= G1_3 .x.754))) (let ((.def_205 (= H1_3 .x.755))) (let ((.def_208 (= K1_3 .x.758))) (let ((.def_211 (= L1_3 .x.759))) (let ((.def_214 (= M1_3 .x.760))) (let ((.def_217 (= N1_3 .x.761))) (let ((.def_220 (= O1_3 .x.762))) (let ((.def_223 (= P1_3 .x.763))) (let ((.def_226 (= S1_3 .x.766))) (let ((.def_229 (= Y1_3 .x.772))) (let ((.def_232 (= C2_3 .x.776))) (let ((.def_235 (= D2_3 .x.777))) (let ((.def_238 (= F2_3 .x.779))) (let ((.def_242 (store B_3 0 0))) (let ((.def_246 (and (= .x.731 0) (= .x.727 0)))) (let ((.def_250 (<= 2 .x.733))) (let ((.def_278 (or .x.780 (and (and (and (and (and (and (and (and (= .x.739 .x.755) (and (= .x.746 .x.772) (and (= .x.742 .x.755) (and (= .x.733 .x.760) (= .x.734 .x.777))))) (= .x.746 .x.760)) (= .x.742 .x.777)) (= .x.752 .x.776)) (= .x.747 .x.772)) (= .x.758 .x.776)) (= .x.750 .x.752)) (= .x.754 .x.758))))) (let ((.def_283 (not .loc.10))) (let ((.def_287 (and G2_3 .def_132))) (let ((.def_291 (and .def_169 (and .def_166 (and .def_161 (and .def_163 .def_287)))))) (let ((.def_325 (not .loc.11))) (let ((.def_328 (<= N_3 Q1_3))) (let ((.def_330 (and .def_132 .def_163))) (let ((.def_333 (and .def_169 (and .def_166 (and .def_161 .def_330))))) (let ((.def_352 (and .def_220 (and .def_217 (and .def_214 (and .def_211 (and .def_208 (and .def_205 (and .def_202 (and .def_199 (and .def_196 (and .def_138 (and .def_193 (and .def_190 (and .def_187 (and .def_184 (and .def_181 (and .def_178 (and .def_135 (and .def_175 (and .def_172 .def_333))))))))))))))))))))) (let ((.def_359 (and .loc.6 (and .def_238 (and .def_235 (and .def_232 (and .def_229 (and .def_226 (and .def_223 .def_352))))))))) (let ((.def_371 (= X1_3 .x.771))) (let ((.def_373 (= Q1_3 .x.764))) (let ((.def_393 (= O_3 .x.736))) (let ((.def_395 (= N_3 .x.735))) (let ((.def_398 (= T_3 .x.741))) (let ((.def_401 (= B1_3 .x.749))) (let ((.def_404 (= I1_3 .x.756))) (let ((.def_407 (= J1_3 .x.757))) (let ((.def_408 (and (and (and (and (and .def_393 .def_395) .def_398) .def_401) .def_404) .def_407))) (let ((.def_410 (= R1_3 .x.765))) (let ((.def_413 (= T1_3 .x.767))) (let ((.def_416 (= U1_3 .x.768))) (let ((.def_419 (= W1_3 .x.770))) (let ((.def_422 (= Z1_3 .x.773))) (let ((.def_425 (= A2_3 .x.774))) (let ((.def_428 (= E2_3 .x.778))) (let ((.def_511 (<= 0 Q_3))) (let ((.def_566 (= H_3 .x.729))) (let ((.def_568 (not .x.763))) (let ((.def_591 (or .x.780 (and .x.763 (not H2_8))))) (let ((.def_593 (not H2_4))) (let ((.def_596 (or .x.780 (and .def_593 (= H2_8 H2_4))))) (let ((.def_600 (<= (- 2147483648) M2_0))) (let ((.def_602 (<= M2_0 2147483647))) (let ((.def_604 (not (<= .x.722 .x.751)))) (let ((.def_609 (= M2_0 .x.766))) (let ((.def_612 (not (= .x.751 0)))) (let ((.def_614 (= .x.740 0))) (let ((.def_617 (= (select H2_1 .x.751) 0))) (let ((.def_622 (= .x.729 (store H_3 .x.751 (* 4 .x.766))))) (let ((.def_625 (= .x.723 (store H2_1 .x.751 1)))) (let ((.def_627 (or .x.780 (and (and (and (and (and (and (and .def_600 (and .def_250 (and .def_602 (and .def_593 .def_604)))) .def_609) .def_612) .def_614) .def_617) .def_622) .def_625)))) (let ((.def_631 (or G2_3 (and .def_246 (= H2_1 .def_242))))) (let ((.def_635 (= D_3 .x.725))) (let ((.def_644 (select D_3 D1_3))) (let ((.def_645 (+ (* 4 Q_3) S_3))) (let ((.def_662 (and .def_393 (and .def_395 (and .def_169 (and .def_166 (and .def_161 (and .def_330 .def_566)))))))) (let ((.def_663 (and .def_172 .def_662))) (let ((.def_666 (and .def_178 (and .def_398 (and .def_135 .def_663))))) (let ((.def_708 (not .loc.12))) (let ((.def_758 (and .def_238 (and .def_428 (and .def_235 (and .def_232 (and .def_425 (and .def_422 (and .def_229 (and .def_371 (and .def_419 (and .def_416 (and .def_413 (and .def_226 (and .def_410 (and .def_373 (and .def_223 (and .def_220 (and .def_217 (and .def_214 (and .def_211 (and .def_208 (and .def_407 (and .def_404 (and .def_205 (and .def_202 (and .def_199 (and .def_196 (and .def_138 (and .def_401 (and .def_193 (and .def_190 (and .def_187 (and .def_184 (and .def_181 (and .def_178 (and .def_398 (and .def_135 (and .def_175 (and .def_172 (and .def_393 (and .def_395 (and .def_169 (and .def_166 (and .def_161 (and .def_566 (and .def_163 (and .def_287 .def_635)))))))))))))))))))))))))))))))))))))))))))))))) (let ((.def_759 (and .loc.5 .def_758))) (let ((.def_770 (<= Q1_3 J1_3))) (let ((.def_781 (and .def_172 (and .def_393 (and .def_395 (and .def_169 (and .def_166 (and .def_161 (and .def_566 (and .def_163 (and .def_132 .def_635))))))))))) (let ((.def_797 (and .def_404 (and .def_205 (and .def_202 (and .def_199 (and .def_196 (and .def_138 (and .def_401 (and .def_193 (and .def_190 (and .def_187 (and .def_184 (and .def_181 (and .def_178 (and .def_398 (and .def_135 (and .def_175 .def_781)))))))))))))))))) (let ((.def_807 (and .def_226 (and .def_410 (and .def_373 (and .def_223 (and .def_220 (and .def_217 (and .def_214 (and .def_211 (and .def_208 (and .def_407 .def_797)))))))))))) (let ((.def_818 (and .def_238 (and .def_428 (and .def_235 (and .def_232 (and .def_425 (and .def_422 (and .def_229 (and .def_371 (and .def_419 (and .def_416 (and .def_413 .def_807))))))))))))) (let ((.def_819 (and .loc.5 .def_818))) (let ((.def_820 (and .def_144 .def_819))) (let ((.def_852 (<= S1_3 Q_3))) (let ((.def_853 (or G2_3 .def_852))) (let ((.def_874 (and .def_422 (and .def_229 (and .def_371 (and .def_419 (and .def_416 (and .def_413 (and .def_226 (and .def_410 (and .def_373 (and .def_223 (and .def_220 (and .def_217 (and .def_214 (and .def_211 (and .def_208 .def_797))))))))))))))))) (let ((.def_898 (<= Q_3 S1_3))) (let ((.def_899 (ite .def_898 (to_int (/ (to_real O1_3) (to_real (+ S1_3 (* (- 1) Q_3))))) (* (- 1) (to_int (/ (to_real O1_3) (to_real (+ Q_3 (* (- 1) S1_3))))))))) (let ((.def_904 (+ O1_3 (+ (* (- 1) (* S1_3 .def_899)) (* Q_3 .def_899))))) (let ((.def_926 (not .def_852))) (let ((.def_982 (or .x.780 (= (+ Q_3 (* (- 1) .x.738)) (- 1))))) (let ((.def_1031 (and .loc.6 (and .loc.5 (and .def_428 (and .def_425 (and .def_422 (and .def_371 (and .def_419 (and .def_416 (and .def_413 (and .def_410 (and .def_373 (and .def_407 (and .def_404 (and .def_401 (and .def_398 (and .def_393 (and .def_395 .def_635))))))))))))))))))) (let ((.def_1045 (and .def_181 .def_666))) (let ((.def_1092 (or G2_3 (and .def_926 (= .x.725 (store D_3 D1_3 (store .def_644 .def_645 Q_3))))))) (let ((.def_1117 (= .x.738 0))) (let ((.def_1167 (<= .x.735 .x.757))) (let ((.def_1170 (<= (+ .x.735 (* (- 1) .x.757)) (- 1)))) (let ((.def_1181 (or G2_3 .def_770))) (let ((.def_1185 (+ .x.756 (* 4 .x.757)))) (let ((.def_1186 (select D_3 .x.736))) (let ((.def_1187 (select .def_1186 .def_1185))) (let ((.def_1191 (and (not .def_1170) (not .def_1167)))) (let ((.def_1195 (select .def_1186 (+ .def_1185 (- 4))))) (let ((.def_1200 (<= M2_0 K2_3))) (let ((.def_1255 (select .x.725 .x.736))) (let ((.def_1308 (or .x.780 (and .x.763 .def_1117)))) (and (and (= G2_3 .x.780) (and (= C1_3 .x.750) (and (= Z_3 .x.747) (and (= R_3 .x.739) (and (= K_3 .x.732) (and (= I_3 .x.730) (and (= G_3 .x.728) (and (= E_3 .x.726) (and (= A_3 .x.722) (= C_3 .x.724)))))))))) (or (or (or (or (or (or (or (or (or (or (or (or (or (or (or (or (or (or (or (or (or (and (or (and (or (or (or (and (or (and (or (or (and (or (and (or (and (and (and (and .loc.7 (and (or .x.780 (= .x.769 .x.775)) (and (and (and (or G2_3 (= .x.769 0)) .def_132) .def_135) .def_138))) .def_142) .def_144) .loc.9) (and (or G2_3 (= .x.723 (store B_3 D1_3 0))) (and .def_155 .def_156))) (and .loc.8 (and (and (and (and (and (and (and (and (and (and (and (and (and (and (and (and (and (and (and (and (and (and (and (and (and (and .def_161 .def_163) .def_166) .def_169) .def_172) .def_175) .def_178) .def_181) .def_184) .def_187) .def_190) .def_193) .def_196) .def_199) .def_202) .def_205) .def_208) .def_211) .def_214) .def_217) .def_220) .def_223) .def_226) .def_229) .def_232) .def_235) .def_238))) (and (or G2_3 (and (= .x.723 .def_242) .def_246)) (and (and (or .x.780 (not .def_250)) (and .def_81 .def_155)) .def_278))) (and .def_283 .loc.11)) (and (and .def_156 (and .def_154 (and .def_79 (and .loc.10 (and .loc.9 (and .def_142 (and .loc.8 (and .loc.6 (and .def_238 (and .def_235 (and .def_232 (and .def_229 (and .def_226 (and .def_223 (and .def_220 (and .def_217 (and .def_214 (and .def_211 (and .def_208 (and .def_205 (and .def_202 (and .def_199 (and .def_196 (and .def_138 (and .def_193 (and .def_190 (and .def_187 (and .def_184 (and .def_181 (and .def_178 (and .def_135 (and .def_175 (and .def_172 .def_291))))))))))))))))))))))))))))))))) .def_325)) (and (or G2_3 .def_328) (and .def_325 (and .def_156 (and .def_154 (and .def_79 (and .loc.10 (and .loc.9 (and .def_142 (and .loc.8 .def_359)))))))))) (and .def_371 .def_373)) (and (or G2_3 (= (+ Q1_3 (* (- 1) .x.764)) (- 1))) (and .def_325 (and .def_81 (and .def_156 (and .def_154 (and .def_79 (and .def_151 (and .loc.10 (and .def_142 .def_359)))))))))) (and (and (and (and (and (and (and .def_408 .def_410) .def_413) .def_416) .def_419) .def_422) .def_425) .def_428)) (and (or G2_3 (and (= S_3 .x.741) (and (= .x.741 .x.756) (and (= .x.764 1) (and (= S1_3 .x.765) (and (= D1_3 .x.778) (and (= .x.735 .x.765) (= .x.736 .x.778)))))))) (and .def_325 (and .def_156 (and .def_154 (and .def_79 (and .def_151 (and .loc.10 (and .def_144 (and .loc.8 (and .loc.5 (and .def_238 (and .def_235 (and .def_232 (and .def_229 (and .def_226 .def_352)))))))))))))))) (and .def_325 (and .def_81 (and .def_156 (and .def_154 (and .def_283 (and .loc.9 (and .def_144 (and .def_142 (and .loc.7 (and .def_238 (and .def_428 (and .def_235 (and .def_232 (and .def_425 (and .def_422 (and .def_229 (and .def_371 (and .def_419 (and .def_416 (and .def_413 (and .def_226 (and .def_410 (and .def_373 (and .def_223 (and .def_220 (and .def_217 (and .def_214 (and .def_211 (and .def_208 (and .def_407 (and .def_404 (and .def_205 (and .def_202 (and .def_199 (and .def_196 (and .def_138 (and .def_401 (and .def_193 (and .def_190 (and .def_187 (and .def_184 (and .def_181 (and .def_178 (and .def_398 (and .def_135 (and .def_175 (and .def_172 (and .def_393 (and .def_291 .def_395)))))))))))))))))))))))))))))))))))))))))))))))))) (and (or G2_3 (not .def_511)) (and .def_325 (and .def_81 (and .def_156 (and .def_154 (and .def_283 (and .loc.9 (and .def_144 (and .def_142 (and .loc.7 (and .def_238 (and .def_428 (and .def_235 (and .def_232 (and .def_425 (and .def_422 (and .def_229 (and .def_371 (and .def_419 (and .def_416 (and .def_413 (and .def_226 (and .def_410 (and .def_373 (and .def_223 (and .def_220 (and .def_217 (and .def_214 (and .def_211 (and .def_208 (and .def_407 (and .def_404 (and .def_205 (and .def_202 (and .def_199 (and .def_196 (and .def_138 (and .def_401 (and .def_193 (and .def_190 (and .def_187 (and .def_184 (and .def_181 (and .def_178 (and .def_398 (and .def_135 (and .def_175 (and .def_172 (and .def_393 (and .def_333 .def_395))))))))))))))))))))))))))))))))))))))))))))))))))) .def_566) (and (and (and (and (and (or .x.780 .def_568) (and .def_325 (and .def_278 (and .def_81 (and .def_154 (and .def_79 (and .def_283 (and .loc.9 (and .loc.6 (and .loc.5 (and .def_428 (and .def_425 (and .def_422 (and .def_371 (and .def_419 (and .def_416 (and .def_413 (and .def_410 (and .def_373 .def_408))))))))))))))))))) .def_591) .def_596) .def_627) .def_631)) (and .def_635 .loc.12)) (and (or G2_3 (and .def_511 (= .x.725 (store D_3 D1_3 (store .def_644 .def_645 (+ (+ (* (- 1) Q_3) S1_3) (- 1))))))) (and (or .x.780 (= (+ Q_3 (* (- 1) .x.738)) 1)) (and (and .def_81 (and .def_156 (and .def_154 (and .def_151 (and .def_283 (and .loc.11 (and .def_144 (and .def_142 (and .loc.7 (and .def_238 (and .def_428 (and .def_235 (and .def_232 (and .def_425 (and .def_422 (and .def_229 (and .def_371 (and .def_419 (and .def_416 (and .def_413 (and .def_226 (and .def_410 (and .def_373 (and .def_223 (and .def_220 (and .def_217 (and .def_214 (and .def_211 (and .def_208 (and .def_407 (and .def_404 (and .def_205 (and .def_202 (and .def_199 (and .def_196 (and .def_138 (and .def_401 (and .def_193 (and .def_190 (and .def_187 (and .def_184 .def_666))))))))))))))))))))))))))))))))))))))))) .def_708)))) (and .def_708 (and .def_325 (and .def_81 (and .def_156 (and .def_154 (and .def_79 (and .def_151 (and .loc.10 (and .def_144 .def_759)))))))))) (and (or G2_3 (not .def_770)) (and .def_708 (and .def_325 (and .def_81 (and .def_156 (and .def_154 (and .def_79 (and .def_151 (and .loc.10 .def_820)))))))))) (and .def_325 (and .def_156 (and .def_154 (and .def_79 (and .def_283 (and .loc.12 (and .loc.9 (and .def_144 (and .def_142 (and .loc.8 .def_758))))))))))) (and (and .def_325 (and .def_156 (and .def_154 (and .def_79 (and .def_283 (and .loc.12 (and .loc.9 (and .def_144 (and .def_142 (and .loc.8 .def_818)))))))))) .def_853)) (and (or G2_3 (= (+ J1_3 (* (- 1) .x.757)) 1)) (and .def_708 (and .def_325 (and .def_81 (and .def_156 (and .def_154 (and .def_79 (and .def_283 (and .loc.9 (and .def_144 (and .def_142 (and .def_238 (and .def_428 (and .def_235 (and .def_232 .def_874)))))))))))))))) (and (or G2_3 (and (and (= (+ Q_3 (+ (* (- 1) .x.759) (ite (and (not (= .def_904 0)) (not (<= 0 O1_3))) (ite .def_898 (+ Q_3 (+ (* (- 1) S1_3) .def_904)) (+ (* (- 1) Q_3) (+ S1_3 .def_904))) .def_904))) 0) (and (= .x.737 (select .def_644 .def_645)) (and (<= (- 2147483648) O1_3) (and (<= O1_3 2147483647) .def_926)))) (= .x.725 (store D_3 D1_3 (store (store .def_644 .def_645 (select .def_644 (+ S_3 (* 4 .x.759)))) (+ S_3 (* 4 .x.759)) .x.737))))) (and (and .def_325 (and .def_156 (and .def_154 (and .def_79 (and .def_151 (and .def_283 (and .loc.12 (and .def_144 (and .def_142 (and .loc.8 (and .def_428 (and .def_235 (and .def_232 (and .def_425 (and .def_422 (and .def_229 (and .def_371 (and .def_419 (and .def_416 (and .def_413 (and .def_226 (and .def_410 (and .def_373 (and .def_223 (and .def_214 (and .def_208 (and .def_407 (and .def_404 (and .def_205 (and .def_202 (and .def_199 (and .def_196 (and .def_138 (and .def_401 (and .def_193 (and .def_190 (and .def_184 (and .def_181 (and .def_178 (and .def_398 (and .def_135 .def_662))))))))))))))))))))))))))))))))))))))))) .def_982))) (and .def_325 (and .def_81 (and .def_156 (and .def_154 (and .def_283 (and .loc.12 (and .loc.9 (and .def_144 (and .loc.7 .def_759)))))))))) (and .def_853 (and .def_325 (and .def_81 (and .def_156 (and .def_154 (and .def_283 (and .loc.12 (and .loc.9 (and .def_144 (and .loc.7 .def_819))))))))))) (and (or .x.780 (and .def_593 (= H2_4 .x.763))) (and (or .x.780 (and .x.763 (= (+ .x.738 (* (- 1) .x.766)) (- 1)))) (and .def_708 (and .def_631 (and .def_627 (and .def_278 (and .def_81 (and .def_154 (and .def_79 (and .def_151 (and .def_283 (and .loc.11 .def_1031))))))))))))) (and (and .def_982 (and .def_708 (and .def_81 (and .def_156 (and .def_154 (and .def_283 (and .loc.11 (and .loc.9 (and .def_144 (and .loc.7 (and .loc.5 (and .def_238 (and .def_428 (and .def_235 (and .def_232 (and .def_425 (and .def_422 (and .def_229 (and .def_371 (and .def_419 (and .def_416 (and .def_413 (and .def_226 (and .def_410 (and .def_373 (and .def_223 (and .def_220 (and .def_217 (and .def_214 (and .def_211 (and .def_208 (and .def_407 (and .def_404 (and .def_205 (and .def_202 (and .def_199 (and .def_196 (and .def_138 (and .def_401 (and .def_190 (and .def_187 (and .def_184 .def_1045)))))))))))))))))))))))))))))))))))))))))) .def_1092)) (and (or G2_3 (and (not .def_328) (= (+ N_3 (* (- 1) .x.757)) 1))) (and .def_708 (and .def_325 (and .def_156 (and .def_154 (and .def_79 (and .def_283 (and .loc.9 (and .def_142 (and .loc.8 (and .loc.6 (and .def_238 (and .def_428 (and .def_235 (and .def_232 (and .def_425 .def_874))))))))))))))))) (and (or G2_3 .def_1117) (and .def_325 (and .def_81 (and .def_156 (and .def_154 (and .def_151 (and .def_283 (and .loc.12 (and .loc.7 (and .loc.6 (and .loc.5 (and .def_238 (and .def_428 (and .def_235 (and .def_232 (and .def_425 (and .def_422 (and .def_229 (and .def_371 (and .def_419 (and .def_416 (and .def_413 (and .def_226 (and .def_410 (and .def_373 (and .def_223 (and .def_220 (and .def_217 (and .def_214 (and .def_211 (and .def_208 (and .def_407 (and .def_404 (and .def_205 (and .def_202 (and .def_199 (and .def_196 (and .def_138 (and .def_401 (and .def_193 (and .def_190 (and .def_187 (and .def_184 (and .def_181 (and .def_178 (and .def_398 (and .def_135 .def_781)))))))))))))))))))))))))))))))))))))))))))))))) (and (and (or (or .x.780 .def_1167) .def_1170) (and .def_708 (and .def_325 (and .def_81 (and .def_156 (and .def_154 (and .def_79 (and .def_151 (and .def_283 .def_820))))))))) .def_1181)) (and (or .x.780 (and (and (= K2_3 .def_1187) .def_1191) (= M2_0 .def_1195))) (and (or .x.780 (and (and (= .x.749 .def_1195) (not .def_1200)) (= .x.725 (store D_3 .x.736 (store (store .def_1186 (+ .def_1185 (- 4)) .def_1187) .def_1185 .x.749))))) (and .def_1181 (and .def_708 (and .def_325 (and .def_81 (and .def_156 (and .def_154 (and .def_79 (and .def_151 (and .def_283 (and .def_144 (and .loc.5 (and .def_238 (and .def_428 (and .def_235 (and .def_232 (and .def_425 (and .def_229 (and .def_371 (and .def_226 (and .def_410 (and .def_373 (and .def_223 (and .def_220 (and .def_217 (and .def_214 (and .def_211 (and .def_208 (and .def_407 (and .def_404 (and .def_205 (and .def_202 (and .def_199 (and .def_196 (and .def_138 (and .def_193 (and .def_190 (and .def_187 (and .def_184 (and .def_181 (and .def_178 (and .def_398 (and .def_135 (and .def_175 .def_663)))))))))))))))))))))))))))))))))))))))))))))) (and (or .x.780 (and (and .def_1191 (= K2_3 (select .def_1255 .def_1185))) (= M2_0 (select .def_1255 (+ .def_1185 (- 4)))))) (and (or .x.780 .def_1200) (and .def_1181 (and .def_708 (and .def_325 (and .def_81 (and .def_156 (and .def_154 (and .def_79 (and .def_151 (and .def_283 (and .def_144 (and .loc.5 (and .def_238 (and .def_428 (and .def_235 (and .def_232 (and .def_425 (and .def_422 (and .def_229 (and .def_371 (and .def_419 .def_807))))))))))))))))))))))) (and (or .x.780 (and .def_625 (and .def_622 (and .def_617 (and .def_614 (and .def_612 (and .def_609 (and .def_600 (and .def_250 (and .def_602 (and .def_568 .def_604))))))))))) (and (and .def_708 (and .def_631 (and .def_278 (and .def_81 (and .def_154 (and .def_79 (and .def_283 (and .loc.11 (and .loc.9 .def_1031))))))))) .def_1308))) (and .def_708 (and .def_81 (and .def_156 (and .def_154 (and .loc.11 (and .loc.10 (and .loc.9 (and .def_142 (and .loc.7 (and .loc.6 .def_758))))))))))) (and .def_853 (and .def_708 (and .def_81 (and .def_156 (and .def_154 (and .loc.11 (and .loc.10 (and .loc.9 (and .def_142 (and .loc.7 (and .loc.6 .def_818)))))))))))) (and .def_1092 (and .def_982 (and .def_708 (and .def_81 (and .def_156 (and .def_154 (and .def_151 (and .loc.11 (and .loc.10 (and .def_142 (and .loc.7 (and .loc.6 (and .def_238 (and .def_428 (and .def_235 (and .def_232 (and .def_425 (and .def_422 (and .def_229 (and .def_371 (and .def_419 (and .def_416 (and .def_413 (and .def_226 (and .def_410 (and .def_373 (and .def_223 (and .def_220 (and .def_217 (and .def_214 (and .def_211 (and .def_208 (and .def_407 (and .def_404 (and .def_205 (and .def_202 (and .def_199 (and .def_196 (and .def_138 (and .def_401 (and .def_193 (and .def_190 (and .def_187 .def_1045)))))))))))))))))))))))))))))))))))))))))))) (and .def_1308 (and .def_708 (and .def_631 (and .def_627 (and .def_596 (and .def_591 (and .def_278 (and .def_81 (and .def_154 (and .def_79 (and .def_151 (and .loc.11 (and .loc.10 .def_1031))))))))))))))))))))))))))))))))))))))))))))))))))))))))))))))))))))))))))))))))))))))))))))))))))))))))))))))))))))))))))))))))))))))))))) (state |.x.722| |.x.723| |.x.724| |.x.725| |.x.726| |.x.727| |.x.728| |.x.729| |.x.730| |.x.731| |.x.732| |.x.733| |.x.734| |.x.735| |.x.736| |.x.737| |.x.738| |.x.739| |.x.740| |.x.741| |.x.742| |.x.743| |.x.744| |.x.745| |.x.746| |.x.747| |.x.748| |.x.749| |.x.750| |.x.751| |.x.752| |.x.753| |.x.754| |.x.755| |.x.756| |.x.757| |.x.758| |.x.759| |.x.760| |.x.761| |.x.762| |.x.763| |.x.764| |.x.765| |.x.766| |.x.767| |.x.768| |.x.769| |.x.770| |.x.771| |.x.772| |.x.773| |.x.774| |.x.775| |.x.776| |.x.777| |.x.778| |.x.779| |.x.780| |.loc.9| |.loc.10| |.loc.11| |.loc.12| |.xtv.1| |.xtv.2| |.xtv.3| |.xtv.4| |.xtv.5|))))
(assert (forall ((|A_3| Int) (|B_3| (Array Int Int)) (|C_3| (Array Int Int)) (|D_3| (Array Int Int)) (|E_3| (Array Int Int)) (|F_3| Int) (|G_3| Int) (|H_3| (Array Int Int)) (|I_3| (Array Int Int)) (|J_3| Int) (|K_3| Int) (|L_3| Int) (|M_3| Int) (|N_3| Int) (|O_3| Int) (|P_3| Int) (|Q_3| Int) (|R_3| Int) (|S_3| Int) (|T_3| Int) (|U_3| Int) (|V_3| Int) (|W_3| Int) (|X_3| Int) (|Y_3| Int) (|Z_3| Int) (|A1_3| Int) (|B1_3| Int) (|C1_3| Int) (|D1_3| Int) (|E1_3| Int) (|F1_3| Int) (|G1_3| Int) (|H1_3| Int) (|I1_3| Int) (|J1_3| Int) (|K1_3| Int) (|L1_3| Int) (|M1_3| Int) (|N1_3| Int) (|O1_3| Int) (|P1_3| Bool) (|Q1_3| Int) (|R1_3| Int) (|S1_3| Int) (|T1_3| Int) (|U1_3| Int) (|H2_2| Int) (|W1_3| Int) (|X1_3| Int) (|Y1_3| Int) (|Z1_3| Int) (|A2_3| Int) (|B2_3| Int) (|C2_3| Int) (|D2_3| Int) (|E2_3| Int) (|F2_3| Int) (|G2_3| Bool) (|.loc.5| Bool) (|.loc.6| Bool) (|.loc.7| Bool) (|.loc.8| Bool) (|H2_8| Bool) (|H2_4| Bool) (|H2_1| (Array Int Int)) (|M2_0| Int) (|K2_3| Int) (|.x.780| Bool) (|.x.750| Int) (|.x.747| Int) (|.x.739| Int) (|.x.732| Int) (|.x.730| (Array Int Int)) (|.x.728| Int) (|.x.726| (Array Int Int)) (|.x.722| Int) (|.x.724| (Array Int Int)) (|.x.769| Int) (|.x.775| Int) (|.x.723| (Array Int Int)) (|.x.740| Int) (|.x.751| Int) (|.loc.9| Bool) (|.x.731| Int) (|.x.727| Int) (|.x.733| Int) (|.x.734| Int) (|.x.737| Int) (|.x.738| Int) (|.x.742| Int) (|.x.743| Int) (|.x.744| Int) (|.x.745| Int) (|.x.746| Int) (|.x.748| Int) (|.x.752| Int) (|.x.753| Int) (|.x.754| Int) (|.x.755| Int) (|.x.758| Int) (|.x.759| Int) (|.x.760| Int) (|.x.761| Int) (|.x.762| Int) (|.x.763| Bool) (|.x.766| Int) (|.x.772| Int) (|.x.776| Int) (|.x.777| Int) (|.x.779| Int) (|.loc.10| Bool) (|.loc.11| Bool) (|.x.771| Int) (|.x.764| Int) (|.x.736| Int) (|.x.735| Int) (|.x.741| Int) (|.x.749| Int) (|.x.756| Int) (|.x.757| Int) (|.x.765| Int) (|.x.767| Int) (|.x.768| Int) (|.x.770| Int) (|.x.773| Int) (|.x.774| Int) (|.x.778| Int) (|.x.729| (Array Int Int)) (|.x.725| (Array Int Int)) (|.loc.12| Bool) (|.xtv.1| Bool) (|.xtv.2| Bool) (|.xtv.3| (Array Int Int)) (|.xtv.4| Int) (|.xtv.5| Int)) (=> (state |A_3| |B_3| |C_3| |D_3| |E_3| |F_3| |G_3| |H_3| |I_3| |J_3| |K_3| |L_3| |M_3| |N_3| |O_3| |P_3| |Q_3| |R_3| |S_3| |T_3| |U_3| |V_3| |W_3| |X_3| |Y_3| |Z_3| |A1_3| |B1_3| |C1_3| |D1_3| |E1_3| |F1_3| |G1_3| |H1_3| |I1_3| |J1_3| |K1_3| |L1_3| |M1_3| |N1_3| |O1_3| |P1_3| |Q1_3| |R1_3| |S1_3| |T1_3| |U1_3| |H2_2| |W1_3| |X1_3| |Y1_3| |Z1_3| |A2_3| |B2_3| |C2_3| |D2_3| |E2_3| |F2_3| |G2_3| |.loc.5| |.loc.6| |.loc.7| |.loc.8| |H2_8| |H2_4| |H2_1| |M2_0| |K2_3|) (not (and G2_3 (and .loc.8 (and .loc.7 (and .loc.5 (not .loc.6)))))))))
(check-sat)
